language ESSENCE' 1.0
letting w be 9
letting n be 63
letting noCrates be 1
letting noGoals be 1
letting pInit be 13
letting stps be 9
letting crates be [30]
letting goals be [49]
letting noWalls be 28
letting walls be [0, 1, 2, 3, 4, 5, 6, 7, 8, 9, 17, 18, 26, 27, 35, 36, 44, 45, 53, 54, 55, 56, 57, 58, 59, 60, 61, 62]